num_variables= 11;
max_domain = 48;
domains = [48,48,48,48,48,48,48,48,48,48,48];
top = 6666;
num_constraints1= 11;
max_constraints1 = 1056;
max_costs1 = 6666;
num_constraints2= 55;
max_constraints2 = 380160;
max_costs2 = 6666;
func1x = [4,10,6,3,11,7,2,1,9,5,8];
num_tuples1 = [48,48,48,48,48,48,48,48,48,48,48];
cum_tuples1 = [0,48,96,144,192,240,288,336,384,432,480];
costs1 = costs1 = costs1 = costs1 = [149, 0, 149, 1, 149, 2, 6666, 3, 158, 4, 161, 5, 159, 6, 168, 7, 154, 8, 6666, 9... ]; // array too long to display, dimensions: (30)
 // array too long to display, dimensions: (1056)

func2x = func2x = [6,5,3,2,5,3,8,7,5,6,1,6,1,4,1,4,8,8,7,3,2,7,5,5,1,2,1,10,1,4,1,2,9,5,2,3,4,1,1,2... ]; // array too long to display, dimensions: (55)

func2y = func2y = [9,11,9,7,7,7,11,9,10,10,5,11,6,9,4,10,10,9,8,11,5,10,8,9,9,10,11,11,3,7,8,4,10,6... ]; // array too long to display, dimensions: (55)

num_tuples2 = num_tuples2 = [2304,2304,2304,2304,2304,2304,2304,2304,2304,2304,2304,2304,2304,2304,2304,2304,... ]; // array too long to display, dimensions: (55)

cum_tuples2 = cum_tuples2 = [0,2304,4608,6912,9216,11520,13824,16128,18432,20736,23040,25344,27648,29952,3225... ]; // array too long to display, dimensions: (55)

costs2 = costs2 = costs2 = costs2 = [78, 11, 1, 6666, 45, 24, 6666, 26, 28, 6666, 42, 40, 6666, 44, 31, 6666, 16, 39,... ]; // array too long to display, dimensions: (30)
 // array too long to display, dimensions: (380160)

